c colouring generated by benchmark framework
p edge 324 1595
v 1 3
v 2 1
v 3 5
v 4 2
v 5 1
v 6 4
v 7 0
v 8 2
v 9 5
v 10 5
v 11 4
v 12 2
v 13 1
v 14 4
v 15 3
v 16 0
v 17 2
v 18 5
v 19 2
v 20 3
v 21 2
v 22 2
v 23 1
v 24 4
v 25 5
v 26 1
v 27 0
v 28 3
v 29 1
v 30 2
v 31 3
v 32 1
v 33 3
v 34 0
v 35 3
v 36 2
v 37 3
v 38 5
v 39 0
v 40 0
v 41 1
v 42 0
v 43 5
v 44 5
v 45 0
v 46 5
v 47 4
v 48 4
v 49 2
v 50 1
v 51 5
v 52 3
v 53 2
v 54 2
v 55 5
v 56 1
v 57 4
v 58 0
v 59 4
v 60 4
v 61 1
v 62 4
v 63 3
v 64 0
v 65 3
v 66 0
v 67 1
v 68 5
v 69 5
v 70 4
v 71 4
v 72 5
v 73 1
v 74 3
v 75 4
v 76 0
v 77 2
v 78 1
v 79 1
v 80 2
v 81 3
v 82 2
v 83 2
v 84 4
v 85 0
v 86 1
v 87 0
v 88 2
v 89 4
v 90 1
v 91 4
v 92 3
v 93 0
v 94 1
v 95 0
v 96 3
v 97 4
v 98 3
v 99 3
v 100 4
v 101 3
v 102 1
v 103 0
v 104 1
v 105 3
v 106 0
v 107 2
v 108 5
v 109 3
v 110 2
v 111 5
v 112 3
v 113 2
v 114 4
v 115 2
v 116 0
v 117 3
v 118 1
v 119 0
v 120 5
v 121 3
v 122 0
v 123 4
v 124 4
v 125 0
v 126 4
v 127 5
v 128 4
v 129 5
v 130 2
v 131 3
v 132 5
v 133 4
v 134 4
v 135 2
v 136 1
v 137 4
v 138 1
v 139 1
v 140 3
v 141 2
v 142 0
v 143 2
v 144 1
v 145 1
v 146 5
v 147 0
v 148 0
v 149 5
v 150 4
v 151 4
v 152 5
v 153 1
v 154 2
v 155 1
v 156 2
v 157 4
v 158 1
v 159 5
v 160 4
v 161 4
v 162 1
v 163 5
v 164 0
v 165 0
v 166 4
v 167 2
v 168 2
v 169 2
v 170 1
v 171 1
v 172 1
v 173 2
v 174 4
v 175 1
v 176 1
v 177 3
v 178 4
v 179 5
v 180 5
v 181 0
v 182 5
v 183 5
v 184 4
v 185 2
v 186 4
v 187 5
v 188 3
v 189 1
v 190 0
v 191 3
v 192 3
v 193 0
v 194 0
v 195 2
v 196 2
v 197 5
v 198 2
v 199 0
v 200 3
v 201 4
v 202 1
v 203 3
v 204 0
v 205 1
v 206 2
v 207 5
v 208 0
v 209 4
v 210 5
v 211 1
v 212 0
v 213 5
v 214 2
v 215 4
v 216 2
v 217 0
v 218 0
v 219 2
v 220 4
v 221 0
v 222 2
v 223 0
v 224 1
v 225 5
v 226 1
v 227 3
v 228 3
v 229 2
v 230 2
v 231 5
v 232 3
v 233 4
v 234 1
v 235 3
v 236 1
v 237 2
v 238 4
v 239 2
v 240 2
v 241 4
v 242 5
v 243 2
v 244 2
v 245 1
v 246 5
v 247 5
v 248 5
v 249 0
v 250 0
v 251 1
v 252 1
v 253 3
v 254 1
v 255 2
v 256 1
v 257 5
v 258 1
v 259 5
v 260 0
v 261 4
v 262 1
v 263 1
v 264 4
v 265 0
v 266 1
v 267 3
v 268 5
v 269 3
v 270 3
v 271 1
v 272 3
v 273 3
v 274 5
v 275 0
v 276 5
v 277 5
v 278 3
v 279 1
v 280 4
v 281 3
v 282 3
v 283 0
v 284 5
v 285 1
v 286 2
v 287 0
v 288 1
v 289 1
v 290 1
v 291 5
v 292 2
v 293 4
v 294 4
v 295 3
v 296 5
v 297 2
v 298 4
v 299 1
v 300 2
v 301 4
v 302 4
v 303 4
v 304 3
v 305 2
v 306 5
v 307 4
v 308 2
v 309 1
v 310 0
v 311 2
v 312 0
v 313 3
v 314 5
v 315 2
v 316 1
v 317 2
v 318 2
v 319 3
v 320 5
v 321 2
v 322 2
v 323 0
v 324 3
